outputs/small-146.sol
# Solution for model Maximum happiness
# Objective value = 532.787
student_indicator[0,0] 0
student_indicator[0,1] 0
student_indicator[0,2] 0
student_indicator[0,3] 0
student_indicator[0,4] 0
student_indicator[0,5] 1
student_indicator[0,6] 0
student_indicator[0,7] 0
student_indicator[0,8] 0
student_indicator[0,9] 0
student_indicator[1,0] 1
student_indicator[1,1] 0
student_indicator[1,2] 0
student_indicator[1,3] 0
student_indicator[1,4] 0
student_indicator[1,5] 0
student_indicator[1,6] 0
student_indicator[1,7] 0
student_indicator[1,8] 0
student_indicator[1,9] 0
student_indicator[2,0] 0
student_indicator[2,1] 0
student_indicator[2,2] 1
student_indicator[2,3] 0
student_indicator[2,4] 0
student_indicator[2,5] 0
student_indicator[2,6] 0
student_indicator[2,7] 0
student_indicator[2,8] 0
student_indicator[2,9] 0
student_indicator[3,0] 1
student_indicator[3,1] 0
student_indicator[3,2] 0
student_indicator[3,3] 0
student_indicator[3,4] 0
student_indicator[3,5] 0
student_indicator[3,6] 0
student_indicator[3,7] 0
student_indicator[3,8] 0
student_indicator[3,9] 0
student_indicator[4,0] 0
student_indicator[4,1] 0
student_indicator[4,2] 0
student_indicator[4,3] 0
student_indicator[4,4] 0
student_indicator[4,5] 1
student_indicator[4,6] 0
student_indicator[4,7] 0
student_indicator[4,8] 0
student_indicator[4,9] 0
student_indicator[5,0] 0
student_indicator[5,1] 0
student_indicator[5,2] 0
student_indicator[5,3] 0
student_indicator[5,4] 1
student_indicator[5,5] 0
student_indicator[5,6] 0
student_indicator[5,7] 0
student_indicator[5,8] 0
student_indicator[5,9] 0
student_indicator[6,0] 0
student_indicator[6,1] 0
student_indicator[6,2] 1
student_indicator[6,3] 0
student_indicator[6,4] 0
student_indicator[6,5] 0
student_indicator[6,6] 0
student_indicator[6,7] 0
student_indicator[6,8] 0
student_indicator[6,9] 0
student_indicator[7,0] 0
student_indicator[7,1] 0
student_indicator[7,2] 1
student_indicator[7,3] 0
student_indicator[7,4] 0
student_indicator[7,5] 0
student_indicator[7,6] 0
student_indicator[7,7] 0
student_indicator[7,8] 0
student_indicator[7,9] 0
student_indicator[8,0] 0
student_indicator[8,1] 0
student_indicator[8,2] 0
student_indicator[8,3] 0
student_indicator[8,4] 0
student_indicator[8,5] 1
student_indicator[8,6] 0
student_indicator[8,7] 0
student_indicator[8,8] 0
student_indicator[8,9] 0
student_indicator[9,0] 1
student_indicator[9,1] 0
student_indicator[9,2] 0
student_indicator[9,3] 0
student_indicator[9,4] 0
student_indicator[9,5] 0
student_indicator[9,6] 0
student_indicator[9,7] 0
student_indicator[9,8] 0
student_indicator[9,9] 0
room_indicator[0] 1
room_indicator[1] 0
room_indicator[2] 1
room_indicator[3] 0
room_indicator[4] 1
room_indicator[5] 1
room_indicator[6] 0
room_indicator[7] 0
room_indicator[8] 0
room_indicator[9] 0
room_stress[0] 5.4300000000016952e+00
room_stress[1] 0
room_stress[2] 3.6560000000017165e+00
room_stress[3] 0
room_stress[4] 0
room_stress[5] 7.045
room_stress[6] 0
room_stress[7] 0
room_stress[8] 0
room_stress[9] 0
total_happiness 532.787
