random-solver/small-146.out
0 2
1 5
2 3
3 2
4 7
5 1
6 6
7 3
8 6
9 4
